# 85958
param k := 6;
param n := 60;
param s := 1;
set E :=  (0,3) (0,6) (0,13) (0,52) (1,10) (1,15) (1,43) (2,34) (2,39) (4,18) (4,29) (4,35) (5,18) (6,57) (7,22) (8,25) (9,52) (10,22) (11,13) (11,51) (12,19) (12,45) (13,30) (14,17) (15,16) (16,21) (16,53) (16,54) (17,48) (18,58) (20,27) (20,46) (20,48) (20,57) (22,32) (23,44) (24,25) (25,55) (26,47) (26,48) (28,41) (28,47) (29,33) (29,56) (31,41) (31,45) (33,48) (33,50) (34,49) (35,37) (36,39) (36,52) (38,56) (39,54) (40,51) (42,44) (44,59) (46,57) (46,59) (51,56) (54,55);